50
1 1 9 4 6 6 9 8 8 7 6 1 8 9 10 6 8 8 2 5 8 3 4 2 1 4 9 2 7 10 3 3 4 6 4 4 4 2 6 8 6 7 7 1 9 5 4 6 9 2
8 3 6 9 1 10 7 10 9 9 9 1 2 1 9 2 3 9 6 6 10 10 10 8 6 7 7 10 5 9 6 7 7 3 10 2 3 7 2 6 1 9 6 10 6 9 7 2 8 8
217.6